c This Formular is generated by mcnf
c
c    horn? no 
c    forced? no 
c    mixed sat? no 
c    clause length = 3 
c
p cnf 20  91 
 -16 -4 -12 0
-6 -4 -2 0
-7 -2 -11 0
-8 2 -18 0
16 -1 14 0
12 7 11 0
1 -13 7 0
16 18 -6 0
7 -16 1 0
16 -11 -5 0
17 7 2 0
-12 -11 -1 0
2 -10 -9 0
7 2 14 0
-10 1 -20 0
-9 -7 -1 0
-19 6 -2 0
-10 -5 -4 0
17 18 2 0
-19 14 -8 0
-12 17 -4 0
%
0

10 47 42 21 73 98 66 76 86 9 81 19 71 3 19 48 18 78 80 22
